Items: 
7 19 4 11 10 8 12 19 11 20 18 14 16 17 15 11 3 10 5 10 5 14 20 4 17 18 5 3 19 11 16 17 10 11 7 11 10 11 9 20 2 18 14 17 14 20 20 16 1 4 18 5 9 9 1 6 18 17 20 16 7 7 5 8 9 11 10 19 13 18 10 15 8 15 3 13 14 2 9 7 17 18 11 6 6 3 3 4 19 14 11 18 20 7 5 20 18 7 18 10 
Bin Capacities: 
36 51 49 22 20 33 41 44 30 28 53 39 35 57 24 52 59 38 21 34 44 60 29 41 49 58 53 40 43 48 50 59 40 38 23 40 53 46 23 23 54 58 42 28 55 46 60 55 25 23 
Bin Costs: 
15 10 18 13 9 23 19 19 18 11 19 22 18 10 13 8 23 23 5 6 24 9 15 9 17 23 19 7 13 16 13 23 21 6 23 17 16 17 11 9 15 18 6 9 23 7 24 13 5 17 